Maximize
  - 3.76082706006 edge_0_1_0_0 - 3.4344400791207 edge_0_2_0_0
   - 2.8708893672836 edge_0_3_0_0 - 0.6957228747698599 edge_0_4_0_0
   - 2.983922540175 edge_0_7_0_0 - 1.4374898275012 edge_0_10_0_0
   - 1.8759540256 edge_0_15_0_0 - 0.3232954599699547 edge_1_2_0_0
   - 0.631894091073807 edge_1_3_0_0 - 0.6603705549116686 edge_1_4_0_0
   - 1.109301401759862 edge_1_7_0_0 - 0.8953326995270401 edge_1_9_0_0
   - 1.08877228537801 edge_1_10_0_0 - 0.4358704969279432 edge_2_1_0_0
   + 1.148150065524484 edge_2_3_0_0 + 0.9153556771593184 edge_2_4_0_0
   + 0.3255237764833443 edge_2_7_0_0 - 0.0395191442424363 edge_2_9_0_0
   + 0.2068395390665323 edge_2_10_0_0 - 0.3011893258999401 edge_2_15_0_0
   - 0.4057219992393613 edge_2_17_0_0 - 0.3705664473347725 edge_2_18_0_0
   + 0.5500595272112403 edge_3_1_0_0 + 2.890268754087336 edge_3_2_0_0
   + 0.9229949853975227 edge_3_4_0_0 + 1.067105946058065 edge_3_7_0_0
   + 0.4306226095304299 edge_3_9_0_0 + 0.024954930733424 edge_3_10_0_0
   - 0.0968744046923228 edge_3_15_0_0 + 0.024650958616548 edge_3_17_0_0
   - 0.5929204836258556 edge_3_20_0_0 + 0.2378314778240545 edge_3_24_0_0
   + 1.606739673156307 edge_4_1_0_0 + 1.20160545107958 edge_4_2_0_0
   + 1.927909081963203 edge_4_3_0_0 + 2.944052109920524 edge_4_7_0_0
   + 2.409649494637513 edge_4_9_0_0 + 2.566239230128056 edge_4_10_0_0
   - 0.0509895180459341 edge_4_11_0_0 + 0.9638101273741458 edge_4_15_0_0
   + 1.058763925924859 edge_4_17_0_0 - 0.2011949034264109 edge_4_18_0_0
   + 0.797505278879804 edge_4_20_0_0 - 0.3093435688101975 edge_4_21_0_0
   + 0.740442822293688 edge_4_23_0_0 + 3.391145733913658 edge_4_24_0_0
   - 0.2060061271022947 edge_7_1_0_0 + 0.4098752877634989 edge_7_2_0_0
   - 0.00911745 edge_7_3_0_0 + 1.100297051196495 edge_7_4_0_0
   + 0.6117908750261887 edge_7_9_0_0 + 0.8417997944790125 edge_7_10_0_0
   + 0.0374865483456229 edge_7_11_0_0 + 0.4577911127086071 edge_7_15_0_0
   + 0.560376966243382 edge_7_17_0_0 - 0.414736838733911 edge_7_18_0_0
   + 0.2928600533295763 edge_7_20_0_0 - 0.5788098202067619 edge_7_21_0_0
   - 0.3604150773350941 edge_7_23_0_0 + 0.3741554912689333 edge_7_24_0_0
   - 1.095750647677208 edge_9_1_0_0 - 0.9074761185886397 edge_9_2_0_0
   - 1.286123511724705 edge_9_3_0_0 - 0.7543190772695917 edge_9_4_0_0
   - 0.4957497922612209 edge_9_7_0_0 + 0.1175898928104112 edge_9_10_0_0
   - 0.4402453986454558 edge_10_1_0_0 - 1.266425322276343 edge_10_2_0_0
   - 0.6739367281451029 edge_10_3_0_0 - 0.9433017170094203 edge_10_4_0_0
   - 0.4961157001736088 edge_10_7_0_0 - 0.1717079253489965 edge_10_9_0_0
   + 0.5571325603100847 edge_10_11_0_0 + 1.726463732009327 edge_10_15_0_0
   + 1.408505473542023 edge_10_17_0_0 + 0.5363977747128593 edge_10_18_0_0
   + 2.052683233598582 edge_10_20_0_0 + 0.8194874819148803 edge_10_21_0_0
   + 1.256559773819209 edge_10_23_0_0 + 1.493875700624894 edge_10_24_0_0
   - 0.5165006118292413 edge_11_9_0_0 - 0.132493892175201 edge_11_10_0_0
   + 0.6314052455239193 edge_11_17_0_0 + 0.7382114103832905 edge_11_18_0_0
   - 0.1925432846629234 edge_11_20_0_0 - 0.7932948840147697 edge_11_21_0_0
   - 0.83624195119292 edge_11_23_0_0 + 0.0422591472616714 edge_11_24_0_0
   - 0.1742372002809399 edge_15_1_0_0 - 0.2520174070364852 edge_15_2_0_0
   - 0.5438074119212523 edge_15_3_0_0 + 0.0680969729210427 edge_15_4_0_0
   + 0.0205052427600399 edge_15_7_0_0 + 0.1538237334511443 edge_15_9_0_0
   + 0.3764982356777063 edge_15_10_0_0 + 2.199323718291638 edge_15_11_0_0
   + 1.254617812903664 edge_15_17_0_0 + 0.7734294388860987 edge_15_18_0_0
   + 1.267072699028554 edge_15_20_0_0 + 0.1185274672986097 edge_15_21_0_0
   + 0.889430081236692 edge_15_23_0_0 + 0.9600706366866283 edge_15_24_0_0
   - 1.545120721779566 edge_17_1_0_0 - 2.007634339795825 edge_17_3_0_0
   - 1.276025673655437 edge_17_4_0_0 - 1.010901496516266 edge_17_9_0_0
   - 0.456006190240717 edge_17_11_0_0 - 0.4089931048313257 edge_17_15_0_0
   + 0.295915431210704 edge_17_18_0_0 - 0.2493188146626658 edge_17_20_0_0
   - 0.6853744448111071 edge_17_21_0_0 - 0.7196819027444432 edge_17_23_0_0
   - 0.6940139945432392 edge_18_15_0_0 - 0.9061983438287153 edge_18_17_0_0
   + 0.1602595457727019 edge_18_20_0_0 - 0.6169383174578392 edge_18_21_0_0
   - 0.3099668884118856 edge_18_23_0_0 - 0.9678667301758939 edge_18_24_0_0
   - 0.2983820942334216 edge_20_1_0_0 - 0.7650054641466032 edge_20_2_0_0
   - 0.8599932994109449 edge_20_3_0_0 + 0.0514897615631512 edge_20_4_0_0
   + 0.2557993464480752 edge_20_7_0_0 - 0.3124061600108482 edge_20_9_0_0
   + 0.1986348658765932 edge_20_10_0_0 + 2.06072003947591 edge_20_11_0_0
   + 0.6266306586254842 edge_20_15_0_0 + 0.7928124779130682 edge_20_17_0_0
   + 2.430917823537434 edge_20_18_0_0 + 0.429249489768925 edge_20_21_0_0
   + 2.062809476159424 edge_20_23_0_0 + 1.413279401979816 edge_20_24_0_0
   - 0.5809248641846884 edge_21_18_0_0 + 0.3367263612981254 edge_21_20_0_0
   + 2.049614031097551 edge_21_23_0_0 + 0.5771799030167085 edge_21_24_0_0
   - 0.6249012035259756 edge_23_11_0_0 - 0.3303036229127814 edge_23_15_0_0
   - 0.6934572820357106 edge_23_17_0_0 - 0.4551048361622082 edge_23_18_0_0
   + 0.0166401230591626 edge_23_20_0_0 + 2.781895361413168 edge_23_21_0_0
   + 0.266651183916928 edge_23_24_0_0 - 0.8947056686659135 edge_24_21_0_0
   - 1.245061481476307 edge_24_23_0_0
Subject To
 one_parent_1: edge_0_1_0_0 + edge_2_1_0_0 + edge_3_1_0_0 + edge_4_1_0_0
   + edge_7_1_0_0 + edge_9_1_0_0 + edge_10_1_0_0 + edge_15_1_0_0
   + edge_17_1_0_0 + edge_20_1_0_0 = 1
 consume_one_flow_unit_1: flow_0_1_0_0 - flow_1_2_0_0 - flow_1_3_0_0
   - flow_1_4_0_0 - flow_1_7_0_0 - flow_1_9_0_0 - flow_1_10_0_0
   + flow_2_1_0_0 + flow_3_1_0_0 + flow_4_1_0_0 + flow_7_1_0_0
   + flow_9_1_0_0 + flow_10_1_0_0 + flow_15_1_0_0 + flow_17_1_0_0
   + flow_20_1_0_0 = 1
 one_parent_2: edge_0_2_0_0 + edge_1_2_0_0 + edge_3_2_0_0 + edge_4_2_0_0
   + edge_7_2_0_0 + edge_9_2_0_0 + edge_10_2_0_0 + edge_15_2_0_0
   + edge_20_2_0_0 = 1
 consume_one_flow_unit_2: flow_0_2_0_0 + flow_1_2_0_0 - flow_2_1_0_0
   - flow_2_3_0_0 - flow_2_4_0_0 - flow_2_7_0_0 - flow_2_9_0_0
   - flow_2_10_0_0 - flow_2_15_0_0 - flow_2_17_0_0 - flow_2_18_0_0
   + flow_3_2_0_0 + flow_4_2_0_0 + flow_7_2_0_0 + flow_9_2_0_0
   + flow_10_2_0_0 + flow_15_2_0_0 + flow_20_2_0_0 = 1
 one_parent_3: edge_0_3_0_0 + edge_1_3_0_0 + edge_2_3_0_0 + edge_4_3_0_0
   + edge_7_3_0_0 + edge_9_3_0_0 + edge_10_3_0_0 + edge_15_3_0_0
   + edge_17_3_0_0 + edge_20_3_0_0 = 1
 consume_one_flow_unit_3: flow_0_3_0_0 + flow_1_3_0_0 + flow_2_3_0_0
   - flow_3_1_0_0 - flow_3_2_0_0 - flow_3_4_0_0 - flow_3_7_0_0
   - flow_3_9_0_0 - flow_3_10_0_0 - flow_3_15_0_0 - flow_3_17_0_0
   - flow_3_20_0_0 - flow_3_24_0_0 + flow_4_3_0_0 + flow_7_3_0_0
   + flow_9_3_0_0 + flow_10_3_0_0 + flow_15_3_0_0 + flow_17_3_0_0
   + flow_20_3_0_0 = 1
 one_parent_4: edge_0_4_0_0 + edge_1_4_0_0 + edge_2_4_0_0 + edge_3_4_0_0
   + edge_7_4_0_0 + edge_9_4_0_0 + edge_10_4_0_0 + edge_15_4_0_0
   + edge_17_4_0_0 + edge_20_4_0_0 = 1
 consume_one_flow_unit_4: flow_0_4_0_0 + flow_1_4_0_0 + flow_2_4_0_0
   + flow_3_4_0_0 - flow_4_1_0_0 - flow_4_2_0_0 - flow_4_3_0_0
   - flow_4_7_0_0 - flow_4_9_0_0 - flow_4_10_0_0 - flow_4_11_0_0
   - flow_4_15_0_0 - flow_4_17_0_0 - flow_4_18_0_0 - flow_4_20_0_0
   - flow_4_21_0_0 - flow_4_23_0_0 - flow_4_24_0_0 + flow_7_4_0_0
   + flow_9_4_0_0 + flow_10_4_0_0 + flow_15_4_0_0 + flow_17_4_0_0
   + flow_20_4_0_0 = 1
 one_parent_5: = 1
 consume_one_flow_unit_5: = 1
 one_parent_6: = 1
 consume_one_flow_unit_6: = 1
 one_parent_7: edge_0_7_0_0 + edge_1_7_0_0 + edge_2_7_0_0 + edge_3_7_0_0
   + edge_4_7_0_0 + edge_9_7_0_0 + edge_10_7_0_0 + edge_15_7_0_0
   + edge_20_7_0_0 = 1
 consume_one_flow_unit_7: flow_0_7_0_0 + flow_1_7_0_0 + flow_2_7_0_0
   + flow_3_7_0_0 + flow_4_7_0_0 - flow_7_1_0_0 - flow_7_2_0_0
   - flow_7_3_0_0 - flow_7_4_0_0 - flow_7_9_0_0 - flow_7_10_0_0
   - flow_7_11_0_0 - flow_7_15_0_0 - flow_7_17_0_0 - flow_7_18_0_0
   - flow_7_20_0_0 - flow_7_21_0_0 - flow_7_23_0_0 - flow_7_24_0_0
   + flow_9_7_0_0 + flow_10_7_0_0 + flow_15_7_0_0 + flow_20_7_0_0 = 1
 one_parent_8: = 1
 consume_one_flow_unit_8: = 1
 one_parent_9: edge_1_9_0_0 + edge_2_9_0_0 + edge_3_9_0_0 + edge_4_9_0_0
   + edge_7_9_0_0 + edge_10_9_0_0 + edge_11_9_0_0 + edge_15_9_0_0
   + edge_17_9_0_0 + edge_20_9_0_0 = 1
 consume_one_flow_unit_9: flow_1_9_0_0 + flow_2_9_0_0 + flow_3_9_0_0
   + flow_4_9_0_0 + flow_7_9_0_0 - flow_9_1_0_0 - flow_9_2_0_0
   - flow_9_3_0_0 - flow_9_4_0_0 - flow_9_7_0_0 - flow_9_10_0_0
   + flow_10_9_0_0 + flow_11_9_0_0 + flow_15_9_0_0 + flow_17_9_0_0
   + flow_20_9_0_0 = 1
 one_parent_10: edge_0_10_0_0 + edge_1_10_0_0 + edge_2_10_0_0
   + edge_3_10_0_0 + edge_4_10_0_0 + edge_7_10_0_0 + edge_9_10_0_0
   + edge_11_10_0_0 + edge_15_10_0_0 + edge_20_10_0_0 = 1
 consume_one_flow_unit_10: flow_0_10_0_0 + flow_1_10_0_0 + flow_2_10_0_0
   + flow_3_10_0_0 + flow_4_10_0_0 + flow_7_10_0_0 + flow_9_10_0_0
   - flow_10_1_0_0 - flow_10_2_0_0 - flow_10_3_0_0 - flow_10_4_0_0
   - flow_10_7_0_0 - flow_10_9_0_0 - flow_10_11_0_0 - flow_10_15_0_0
   - flow_10_17_0_0 - flow_10_18_0_0 - flow_10_20_0_0 - flow_10_21_0_0
   - flow_10_23_0_0 - flow_10_24_0_0 + flow_11_10_0_0 + flow_15_10_0_0
   + flow_20_10_0_0 = 1
 one_parent_11: edge_4_11_0_0 + edge_7_11_0_0 + edge_10_11_0_0
   + edge_15_11_0_0 + edge_17_11_0_0 + edge_20_11_0_0 + edge_23_11_0_0 = 1
 consume_one_flow_unit_11: flow_4_11_0_0 + flow_7_11_0_0 + flow_10_11_0_0
   - flow_11_9_0_0 - flow_11_10_0_0 - flow_11_17_0_0 - flow_11_18_0_0
   - flow_11_20_0_0 - flow_11_21_0_0 - flow_11_23_0_0 - flow_11_24_0_0
   + flow_15_11_0_0 + flow_17_11_0_0 + flow_20_11_0_0 + flow_23_11_0_0 = 1
 one_parent_12: = 1
 consume_one_flow_unit_12: = 1
 one_parent_13: = 1
 consume_one_flow_unit_13: = 1
 one_parent_14: = 1
 consume_one_flow_unit_14: = 1
 one_parent_15: edge_0_15_0_0 + edge_2_15_0_0 + edge_3_15_0_0
   + edge_4_15_0_0 + edge_7_15_0_0 + edge_10_15_0_0 + edge_17_15_0_0
   + edge_18_15_0_0 + edge_20_15_0_0 + edge_23_15_0_0 = 1
 consume_one_flow_unit_15: flow_0_15_0_0 + flow_2_15_0_0 + flow_3_15_0_0
   + flow_4_15_0_0 + flow_7_15_0_0 + flow_10_15_0_0 - flow_15_1_0_0
   - flow_15_2_0_0 - flow_15_3_0_0 - flow_15_4_0_0 - flow_15_7_0_0
   - flow_15_9_0_0 - flow_15_10_0_0 - flow_15_11_0_0 - flow_15_17_0_0
   - flow_15_18_0_0 - flow_15_20_0_0 - flow_15_21_0_0 - flow_15_23_0_0
   - flow_15_24_0_0 + flow_17_15_0_0 + flow_18_15_0_0 + flow_20_15_0_0
   + flow_23_15_0_0 = 1
 one_parent_16: = 1
 consume_one_flow_unit_16: = 1
 one_parent_17: edge_2_17_0_0 + edge_3_17_0_0 + edge_4_17_0_0
   + edge_7_17_0_0 + edge_10_17_0_0 + edge_11_17_0_0 + edge_15_17_0_0
   + edge_18_17_0_0 + edge_20_17_0_0 + edge_23_17_0_0 = 1
 consume_one_flow_unit_17: flow_2_17_0_0 + flow_3_17_0_0 + flow_4_17_0_0
   + flow_7_17_0_0 + flow_10_17_0_0 + flow_11_17_0_0 + flow_15_17_0_0
   - flow_17_1_0_0 - flow_17_3_0_0 - flow_17_4_0_0 - flow_17_9_0_0
   - flow_17_11_0_0 - flow_17_15_0_0 - flow_17_18_0_0 - flow_17_20_0_0
   - flow_17_21_0_0 - flow_17_23_0_0 + flow_18_17_0_0 + flow_20_17_0_0
   + flow_23_17_0_0 = 1
 one_parent_18: edge_2_18_0_0 + edge_4_18_0_0 + edge_7_18_0_0
   + edge_10_18_0_0 + edge_11_18_0_0 + edge_15_18_0_0 + edge_17_18_0_0
   + edge_20_18_0_0 + edge_21_18_0_0 + edge_23_18_0_0 = 1
 consume_one_flow_unit_18: flow_2_18_0_0 + flow_4_18_0_0 + flow_7_18_0_0
   + flow_10_18_0_0 + flow_11_18_0_0 + flow_15_18_0_0 + flow_17_18_0_0
   - flow_18_15_0_0 - flow_18_17_0_0 - flow_18_20_0_0 - flow_18_21_0_0
   - flow_18_23_0_0 - flow_18_24_0_0 + flow_20_18_0_0 + flow_21_18_0_0
   + flow_23_18_0_0 = 1
 one_parent_19: = 1
 consume_one_flow_unit_19: = 1
 one_parent_20: edge_3_20_0_0 + edge_4_20_0_0 + edge_7_20_0_0
   + edge_10_20_0_0 + edge_11_20_0_0 + edge_15_20_0_0 + edge_17_20_0_0
   + edge_18_20_0_0 + edge_21_20_0_0 + edge_23_20_0_0 = 1
 consume_one_flow_unit_20: flow_3_20_0_0 + flow_4_20_0_0 + flow_7_20_0_0
   + flow_10_20_0_0 + flow_11_20_0_0 + flow_15_20_0_0 + flow_17_20_0_0
   + flow_18_20_0_0 - flow_20_1_0_0 - flow_20_2_0_0 - flow_20_3_0_0
   - flow_20_4_0_0 - flow_20_7_0_0 - flow_20_9_0_0 - flow_20_10_0_0
   - flow_20_11_0_0 - flow_20_15_0_0 - flow_20_17_0_0 - flow_20_18_0_0
   - flow_20_21_0_0 - flow_20_23_0_0 - flow_20_24_0_0 + flow_21_20_0_0
   + flow_23_20_0_0 = 1
 one_parent_21: edge_4_21_0_0 + edge_7_21_0_0 + edge_10_21_0_0
   + edge_11_21_0_0 + edge_15_21_0_0 + edge_17_21_0_0 + edge_18_21_0_0
   + edge_20_21_0_0 + edge_23_21_0_0 + edge_24_21_0_0 = 1
 consume_one_flow_unit_21: flow_4_21_0_0 + flow_7_21_0_0 + flow_10_21_0_0
   + flow_11_21_0_0 + flow_15_21_0_0 + flow_17_21_0_0 + flow_18_21_0_0
   + flow_20_21_0_0 - flow_21_18_0_0 - flow_21_20_0_0 - flow_21_23_0_0
   - flow_21_24_0_0 + flow_23_21_0_0 + flow_24_21_0_0 = 1
 one_parent_22: = 1
 consume_one_flow_unit_22: = 1
 one_parent_23: edge_4_23_0_0 + edge_7_23_0_0 + edge_10_23_0_0
   + edge_11_23_0_0 + edge_15_23_0_0 + edge_17_23_0_0 + edge_18_23_0_0
   + edge_20_23_0_0 + edge_21_23_0_0 + edge_24_23_0_0 = 1
 consume_one_flow_unit_23: flow_4_23_0_0 + flow_7_23_0_0 + flow_10_23_0_0
   + flow_11_23_0_0 + flow_15_23_0_0 + flow_17_23_0_0 + flow_18_23_0_0
   + flow_20_23_0_0 + flow_21_23_0_0 - flow_23_11_0_0 - flow_23_15_0_0
   - flow_23_17_0_0 - flow_23_18_0_0 - flow_23_20_0_0 - flow_23_21_0_0
   - flow_23_24_0_0 + flow_24_23_0_0 = 1
 one_parent_24: edge_3_24_0_0 + edge_4_24_0_0 + edge_7_24_0_0
   + edge_10_24_0_0 + edge_11_24_0_0 + edge_15_24_0_0 + edge_18_24_0_0
   + edge_20_24_0_0 + edge_21_24_0_0 + edge_23_24_0_0 = 1
 consume_one_flow_unit_24: flow_3_24_0_0 + flow_4_24_0_0 + flow_7_24_0_0
   + flow_10_24_0_0 + flow_11_24_0_0 + flow_15_24_0_0 + flow_18_24_0_0
   + flow_20_24_0_0 + flow_21_24_0_0 + flow_23_24_0_0 - flow_24_21_0_0
   - flow_24_23_0_0 = 1
 root_flow: flow_0_1_0_0 + flow_0_2_0_0 + flow_0_3_0_0 + flow_0_4_0_0
   + flow_0_7_0_0 + flow_0_10_0_0 + flow_0_15_0_0 = 24
 inactive_no_flow_0_1_0_0: flow_0_1_0_0 - 1000 edge_0_1_0_0 <= 0
 inactive_no_flow_0_2_0_0: flow_0_2_0_0 - 1000 edge_0_2_0_0 <= 0
 inactive_no_flow_0_3_0_0: flow_0_3_0_0 - 1000 edge_0_3_0_0 <= 0
 inactive_no_flow_0_4_0_0: flow_0_4_0_0 - 1000 edge_0_4_0_0 <= 0
 inactive_no_flow_0_7_0_0: flow_0_7_0_0 - 1000 edge_0_7_0_0 <= 0
 inactive_no_flow_0_10_0_0: flow_0_10_0_0 - 1000 edge_0_10_0_0 <= 0
 inactive_no_flow_0_15_0_0: flow_0_15_0_0 - 1000 edge_0_15_0_0 <= 0
 inactive_no_flow_1_2_0_0: flow_1_2_0_0 - 1000 edge_1_2_0_0 <= 0
 inactive_no_flow_1_3_0_0: flow_1_3_0_0 - 1000 edge_1_3_0_0 <= 0
 inactive_no_flow_1_4_0_0: flow_1_4_0_0 - 1000 edge_1_4_0_0 <= 0
 inactive_no_flow_1_7_0_0: flow_1_7_0_0 - 1000 edge_1_7_0_0 <= 0
 inactive_no_flow_1_9_0_0: flow_1_9_0_0 - 1000 edge_1_9_0_0 <= 0
 inactive_no_flow_1_10_0_0: flow_1_10_0_0 - 1000 edge_1_10_0_0 <= 0
 inactive_no_flow_2_1_0_0: flow_2_1_0_0 - 1000 edge_2_1_0_0 <= 0
 inactive_no_flow_2_3_0_0: flow_2_3_0_0 - 1000 edge_2_3_0_0 <= 0
 inactive_no_flow_2_4_0_0: flow_2_4_0_0 - 1000 edge_2_4_0_0 <= 0
 inactive_no_flow_2_7_0_0: flow_2_7_0_0 - 1000 edge_2_7_0_0 <= 0
 inactive_no_flow_2_9_0_0: flow_2_9_0_0 - 1000 edge_2_9_0_0 <= 0
 inactive_no_flow_2_10_0_0: flow_2_10_0_0 - 1000 edge_2_10_0_0 <= 0
 inactive_no_flow_2_15_0_0: flow_2_15_0_0 - 1000 edge_2_15_0_0 <= 0
 inactive_no_flow_2_17_0_0: flow_2_17_0_0 - 1000 edge_2_17_0_0 <= 0
 inactive_no_flow_2_18_0_0: flow_2_18_0_0 - 1000 edge_2_18_0_0 <= 0
 inactive_no_flow_3_1_0_0: flow_3_1_0_0 - 1000 edge_3_1_0_0 <= 0
 inactive_no_flow_3_2_0_0: flow_3_2_0_0 - 1000 edge_3_2_0_0 <= 0
 inactive_no_flow_3_4_0_0: flow_3_4_0_0 - 1000 edge_3_4_0_0 <= 0
 inactive_no_flow_3_7_0_0: flow_3_7_0_0 - 1000 edge_3_7_0_0 <= 0
 inactive_no_flow_3_9_0_0: flow_3_9_0_0 - 1000 edge_3_9_0_0 <= 0
 inactive_no_flow_3_10_0_0: flow_3_10_0_0 - 1000 edge_3_10_0_0 <= 0
 inactive_no_flow_3_15_0_0: flow_3_15_0_0 - 1000 edge_3_15_0_0 <= 0
 inactive_no_flow_3_17_0_0: flow_3_17_0_0 - 1000 edge_3_17_0_0 <= 0
 inactive_no_flow_3_20_0_0: flow_3_20_0_0 - 1000 edge_3_20_0_0 <= 0
 inactive_no_flow_3_24_0_0: flow_3_24_0_0 - 1000 edge_3_24_0_0 <= 0
 inactive_no_flow_4_1_0_0: flow_4_1_0_0 - 1000 edge_4_1_0_0 <= 0
 inactive_no_flow_4_2_0_0: flow_4_2_0_0 - 1000 edge_4_2_0_0 <= 0
 inactive_no_flow_4_3_0_0: flow_4_3_0_0 - 1000 edge_4_3_0_0 <= 0
 inactive_no_flow_4_7_0_0: flow_4_7_0_0 - 1000 edge_4_7_0_0 <= 0
 inactive_no_flow_4_9_0_0: flow_4_9_0_0 - 1000 edge_4_9_0_0 <= 0
 inactive_no_flow_4_10_0_0: flow_4_10_0_0 - 1000 edge_4_10_0_0 <= 0
 inactive_no_flow_4_11_0_0: flow_4_11_0_0 - 1000 edge_4_11_0_0 <= 0
 inactive_no_flow_4_15_0_0: flow_4_15_0_0 - 1000 edge_4_15_0_0 <= 0
 inactive_no_flow_4_17_0_0: flow_4_17_0_0 - 1000 edge_4_17_0_0 <= 0
 inactive_no_flow_4_18_0_0: flow_4_18_0_0 - 1000 edge_4_18_0_0 <= 0
 inactive_no_flow_4_20_0_0: flow_4_20_0_0 - 1000 edge_4_20_0_0 <= 0
 inactive_no_flow_4_21_0_0: flow_4_21_0_0 - 1000 edge_4_21_0_0 <= 0
 inactive_no_flow_4_23_0_0: flow_4_23_0_0 - 1000 edge_4_23_0_0 <= 0
 inactive_no_flow_4_24_0_0: flow_4_24_0_0 - 1000 edge_4_24_0_0 <= 0
 inactive_no_flow_7_1_0_0: flow_7_1_0_0 - 1000 edge_7_1_0_0 <= 0
 inactive_no_flow_7_2_0_0: flow_7_2_0_0 - 1000 edge_7_2_0_0 <= 0
 inactive_no_flow_7_3_0_0: flow_7_3_0_0 - 1000 edge_7_3_0_0 <= 0
 inactive_no_flow_7_4_0_0: flow_7_4_0_0 - 1000 edge_7_4_0_0 <= 0
 inactive_no_flow_7_9_0_0: flow_7_9_0_0 - 1000 edge_7_9_0_0 <= 0
 inactive_no_flow_7_10_0_0: flow_7_10_0_0 - 1000 edge_7_10_0_0 <= 0
 inactive_no_flow_7_11_0_0: flow_7_11_0_0 - 1000 edge_7_11_0_0 <= 0
 inactive_no_flow_7_15_0_0: flow_7_15_0_0 - 1000 edge_7_15_0_0 <= 0
 inactive_no_flow_7_17_0_0: flow_7_17_0_0 - 1000 edge_7_17_0_0 <= 0
 inactive_no_flow_7_18_0_0: flow_7_18_0_0 - 1000 edge_7_18_0_0 <= 0
 inactive_no_flow_7_20_0_0: flow_7_20_0_0 - 1000 edge_7_20_0_0 <= 0
 inactive_no_flow_7_21_0_0: flow_7_21_0_0 - 1000 edge_7_21_0_0 <= 0
 inactive_no_flow_7_23_0_0: flow_7_23_0_0 - 1000 edge_7_23_0_0 <= 0
 inactive_no_flow_7_24_0_0: flow_7_24_0_0 - 1000 edge_7_24_0_0 <= 0
 inactive_no_flow_9_1_0_0: flow_9_1_0_0 - 1000 edge_9_1_0_0 <= 0
 inactive_no_flow_9_2_0_0: flow_9_2_0_0 - 1000 edge_9_2_0_0 <= 0
 inactive_no_flow_9_3_0_0: flow_9_3_0_0 - 1000 edge_9_3_0_0 <= 0
 inactive_no_flow_9_4_0_0: flow_9_4_0_0 - 1000 edge_9_4_0_0 <= 0
 inactive_no_flow_9_7_0_0: flow_9_7_0_0 - 1000 edge_9_7_0_0 <= 0
 inactive_no_flow_9_10_0_0: flow_9_10_0_0 - 1000 edge_9_10_0_0 <= 0
 inactive_no_flow_10_1_0_0: flow_10_1_0_0 - 1000 edge_10_1_0_0 <= 0
 inactive_no_flow_10_2_0_0: flow_10_2_0_0 - 1000 edge_10_2_0_0 <= 0
 inactive_no_flow_10_3_0_0: flow_10_3_0_0 - 1000 edge_10_3_0_0 <= 0
 inactive_no_flow_10_4_0_0: flow_10_4_0_0 - 1000 edge_10_4_0_0 <= 0
 inactive_no_flow_10_7_0_0: flow_10_7_0_0 - 1000 edge_10_7_0_0 <= 0
 inactive_no_flow_10_9_0_0: flow_10_9_0_0 - 1000 edge_10_9_0_0 <= 0
 inactive_no_flow_10_11_0_0: flow_10_11_0_0 - 1000 edge_10_11_0_0 <= 0
 inactive_no_flow_10_15_0_0: flow_10_15_0_0 - 1000 edge_10_15_0_0 <= 0
 inactive_no_flow_10_17_0_0: flow_10_17_0_0 - 1000 edge_10_17_0_0 <= 0
 inactive_no_flow_10_18_0_0: flow_10_18_0_0 - 1000 edge_10_18_0_0 <= 0
 inactive_no_flow_10_20_0_0: flow_10_20_0_0 - 1000 edge_10_20_0_0 <= 0
 inactive_no_flow_10_21_0_0: flow_10_21_0_0 - 1000 edge_10_21_0_0 <= 0
 inactive_no_flow_10_23_0_0: flow_10_23_0_0 - 1000 edge_10_23_0_0 <= 0
 inactive_no_flow_10_24_0_0: flow_10_24_0_0 - 1000 edge_10_24_0_0 <= 0
 inactive_no_flow_11_9_0_0: flow_11_9_0_0 - 1000 edge_11_9_0_0 <= 0
 inactive_no_flow_11_10_0_0: flow_11_10_0_0 - 1000 edge_11_10_0_0 <= 0
 inactive_no_flow_11_17_0_0: flow_11_17_0_0 - 1000 edge_11_17_0_0 <= 0
 inactive_no_flow_11_18_0_0: flow_11_18_0_0 - 1000 edge_11_18_0_0 <= 0
 inactive_no_flow_11_20_0_0: flow_11_20_0_0 - 1000 edge_11_20_0_0 <= 0
 inactive_no_flow_11_21_0_0: flow_11_21_0_0 - 1000 edge_11_21_0_0 <= 0
 inactive_no_flow_11_23_0_0: flow_11_23_0_0 - 1000 edge_11_23_0_0 <= 0
 inactive_no_flow_11_24_0_0: flow_11_24_0_0 - 1000 edge_11_24_0_0 <= 0
 inactive_no_flow_15_1_0_0: flow_15_1_0_0 - 1000 edge_15_1_0_0 <= 0
 inactive_no_flow_15_2_0_0: flow_15_2_0_0 - 1000 edge_15_2_0_0 <= 0
 inactive_no_flow_15_3_0_0: flow_15_3_0_0 - 1000 edge_15_3_0_0 <= 0
 inactive_no_flow_15_4_0_0: flow_15_4_0_0 - 1000 edge_15_4_0_0 <= 0
 inactive_no_flow_15_7_0_0: flow_15_7_0_0 - 1000 edge_15_7_0_0 <= 0
 inactive_no_flow_15_9_0_0: flow_15_9_0_0 - 1000 edge_15_9_0_0 <= 0
 inactive_no_flow_15_10_0_0: flow_15_10_0_0 - 1000 edge_15_10_0_0 <= 0
 inactive_no_flow_15_11_0_0: flow_15_11_0_0 - 1000 edge_15_11_0_0 <= 0
 inactive_no_flow_15_17_0_0: flow_15_17_0_0 - 1000 edge_15_17_0_0 <= 0
 inactive_no_flow_15_18_0_0: flow_15_18_0_0 - 1000 edge_15_18_0_0 <= 0
 inactive_no_flow_15_20_0_0: flow_15_20_0_0 - 1000 edge_15_20_0_0 <= 0
 inactive_no_flow_15_21_0_0: flow_15_21_0_0 - 1000 edge_15_21_0_0 <= 0
 inactive_no_flow_15_23_0_0: flow_15_23_0_0 - 1000 edge_15_23_0_0 <= 0
 inactive_no_flow_15_24_0_0: flow_15_24_0_0 - 1000 edge_15_24_0_0 <= 0
 inactive_no_flow_17_1_0_0: flow_17_1_0_0 - 1000 edge_17_1_0_0 <= 0
 inactive_no_flow_17_3_0_0: flow_17_3_0_0 - 1000 edge_17_3_0_0 <= 0
 inactive_no_flow_17_4_0_0: flow_17_4_0_0 - 1000 edge_17_4_0_0 <= 0
 inactive_no_flow_17_9_0_0: flow_17_9_0_0 - 1000 edge_17_9_0_0 <= 0
 inactive_no_flow_17_11_0_0: flow_17_11_0_0 - 1000 edge_17_11_0_0 <= 0
 inactive_no_flow_17_15_0_0: flow_17_15_0_0 - 1000 edge_17_15_0_0 <= 0
 inactive_no_flow_17_18_0_0: flow_17_18_0_0 - 1000 edge_17_18_0_0 <= 0
 inactive_no_flow_17_20_0_0: flow_17_20_0_0 - 1000 edge_17_20_0_0 <= 0
 inactive_no_flow_17_21_0_0: flow_17_21_0_0 - 1000 edge_17_21_0_0 <= 0
 inactive_no_flow_17_23_0_0: flow_17_23_0_0 - 1000 edge_17_23_0_0 <= 0
 inactive_no_flow_18_15_0_0: flow_18_15_0_0 - 1000 edge_18_15_0_0 <= 0
 inactive_no_flow_18_17_0_0: flow_18_17_0_0 - 1000 edge_18_17_0_0 <= 0
 inactive_no_flow_18_20_0_0: flow_18_20_0_0 - 1000 edge_18_20_0_0 <= 0
 inactive_no_flow_18_21_0_0: flow_18_21_0_0 - 1000 edge_18_21_0_0 <= 0
 inactive_no_flow_18_23_0_0: flow_18_23_0_0 - 1000 edge_18_23_0_0 <= 0
 inactive_no_flow_18_24_0_0: flow_18_24_0_0 - 1000 edge_18_24_0_0 <= 0
 inactive_no_flow_20_1_0_0: flow_20_1_0_0 - 1000 edge_20_1_0_0 <= 0
 inactive_no_flow_20_2_0_0: flow_20_2_0_0 - 1000 edge_20_2_0_0 <= 0
 inactive_no_flow_20_3_0_0: flow_20_3_0_0 - 1000 edge_20_3_0_0 <= 0
 inactive_no_flow_20_4_0_0: flow_20_4_0_0 - 1000 edge_20_4_0_0 <= 0
 inactive_no_flow_20_7_0_0: flow_20_7_0_0 - 1000 edge_20_7_0_0 <= 0
 inactive_no_flow_20_9_0_0: flow_20_9_0_0 - 1000 edge_20_9_0_0 <= 0
 inactive_no_flow_20_10_0_0: flow_20_10_0_0 - 1000 edge_20_10_0_0 <= 0
 inactive_no_flow_20_11_0_0: flow_20_11_0_0 - 1000 edge_20_11_0_0 <= 0
 inactive_no_flow_20_15_0_0: flow_20_15_0_0 - 1000 edge_20_15_0_0 <= 0
 inactive_no_flow_20_17_0_0: flow_20_17_0_0 - 1000 edge_20_17_0_0 <= 0
 inactive_no_flow_20_18_0_0: flow_20_18_0_0 - 1000 edge_20_18_0_0 <= 0
 inactive_no_flow_20_21_0_0: flow_20_21_0_0 - 1000 edge_20_21_0_0 <= 0
 inactive_no_flow_20_23_0_0: flow_20_23_0_0 - 1000 edge_20_23_0_0 <= 0
 inactive_no_flow_20_24_0_0: flow_20_24_0_0 - 1000 edge_20_24_0_0 <= 0
 inactive_no_flow_21_18_0_0: flow_21_18_0_0 - 1000 edge_21_18_0_0 <= 0
 inactive_no_flow_21_20_0_0: flow_21_20_0_0 - 1000 edge_21_20_0_0 <= 0
 inactive_no_flow_21_23_0_0: flow_21_23_0_0 - 1000 edge_21_23_0_0 <= 0
 inactive_no_flow_21_24_0_0: flow_21_24_0_0 - 1000 edge_21_24_0_0 <= 0
 inactive_no_flow_23_11_0_0: flow_23_11_0_0 - 1000 edge_23_11_0_0 <= 0
 inactive_no_flow_23_15_0_0: flow_23_15_0_0 - 1000 edge_23_15_0_0 <= 0
 inactive_no_flow_23_17_0_0: flow_23_17_0_0 - 1000 edge_23_17_0_0 <= 0
 inactive_no_flow_23_18_0_0: flow_23_18_0_0 - 1000 edge_23_18_0_0 <= 0
 inactive_no_flow_23_20_0_0: flow_23_20_0_0 - 1000 edge_23_20_0_0 <= 0
 inactive_no_flow_23_21_0_0: flow_23_21_0_0 - 1000 edge_23_21_0_0 <= 0
 inactive_no_flow_23_24_0_0: flow_23_24_0_0 - 1000 edge_23_24_0_0 <= 0
 inactive_no_flow_24_21_0_0: flow_24_21_0_0 - 1000 edge_24_21_0_0 <= 0
 inactive_no_flow_24_23_0_0: flow_24_23_0_0 - 1000 edge_24_23_0_0 <= 0
Bounds
Binaries
 edge_0_1_0_0 edge_0_2_0_0 edge_0_3_0_0 edge_0_4_0_0 edge_0_7_0_0
 edge_0_10_0_0 edge_0_15_0_0 edge_1_2_0_0 edge_1_3_0_0 edge_1_4_0_0
 edge_1_7_0_0 edge_1_9_0_0 edge_1_10_0_0 edge_2_1_0_0 edge_2_3_0_0
 edge_2_4_0_0 edge_2_7_0_0 edge_2_9_0_0 edge_2_10_0_0 edge_2_15_0_0
 edge_2_17_0_0 edge_2_18_0_0 edge_3_1_0_0 edge_3_2_0_0 edge_3_4_0_0
 edge_3_7_0_0 edge_3_9_0_0 edge_3_10_0_0 edge_3_15_0_0 edge_3_17_0_0
 edge_3_20_0_0 edge_3_24_0_0 edge_4_1_0_0 edge_4_2_0_0 edge_4_3_0_0
 edge_4_7_0_0 edge_4_9_0_0 edge_4_10_0_0 edge_4_11_0_0 edge_4_15_0_0
 edge_4_17_0_0 edge_4_18_0_0 edge_4_20_0_0 edge_4_21_0_0 edge_4_23_0_0
 edge_4_24_0_0 edge_7_1_0_0 edge_7_2_0_0 edge_7_3_0_0 edge_7_4_0_0
 edge_7_9_0_0 edge_7_10_0_0 edge_7_11_0_0 edge_7_15_0_0 edge_7_17_0_0
 edge_7_18_0_0 edge_7_20_0_0 edge_7_21_0_0 edge_7_23_0_0 edge_7_24_0_0
 edge_9_1_0_0 edge_9_2_0_0 edge_9_3_0_0 edge_9_4_0_0 edge_9_7_0_0
 edge_9_10_0_0 edge_10_1_0_0 edge_10_2_0_0 edge_10_3_0_0 edge_10_4_0_0
 edge_10_7_0_0 edge_10_9_0_0 edge_10_11_0_0 edge_10_15_0_0 edge_10_17_0_0
 edge_10_18_0_0 edge_10_20_0_0 edge_10_21_0_0 edge_10_23_0_0 edge_10_24_0_0
 edge_11_9_0_0 edge_11_10_0_0 edge_11_17_0_0 edge_11_18_0_0 edge_11_20_0_0
 edge_11_21_0_0 edge_11_23_0_0 edge_11_24_0_0 edge_15_1_0_0 edge_15_2_0_0
 edge_15_3_0_0 edge_15_4_0_0 edge_15_7_0_0 edge_15_9_0_0 edge_15_10_0_0
 edge_15_11_0_0 edge_15_17_0_0 edge_15_18_0_0 edge_15_20_0_0 edge_15_21_0_0
 edge_15_23_0_0 edge_15_24_0_0 edge_17_1_0_0 edge_17_3_0_0 edge_17_4_0_0
 edge_17_9_0_0 edge_17_11_0_0 edge_17_15_0_0 edge_17_18_0_0 edge_17_20_0_0
 edge_17_21_0_0 edge_17_23_0_0 edge_18_15_0_0 edge_18_17_0_0 edge_18_20_0_0
 edge_18_21_0_0 edge_18_23_0_0 edge_18_24_0_0 edge_20_1_0_0 edge_20_2_0_0
 edge_20_3_0_0 edge_20_4_0_0 edge_20_7_0_0 edge_20_9_0_0 edge_20_10_0_0
 edge_20_11_0_0 edge_20_15_0_0 edge_20_17_0_0 edge_20_18_0_0 edge_20_21_0_0
 edge_20_23_0_0 edge_20_24_0_0 edge_21_18_0_0 edge_21_20_0_0 edge_21_23_0_0
 edge_21_24_0_0 edge_23_11_0_0 edge_23_15_0_0 edge_23_17_0_0 edge_23_18_0_0
 edge_23_20_0_0 edge_23_21_0_0 edge_23_24_0_0 edge_24_21_0_0 edge_24_23_0_0
End
